11 15

1 8 3 7 7 11 12 5 2 14 9 11
5 11 2 15 3 9 14 13
12 13 2 14 10 2 1 7
15 4 13 11 1 3 7 6 10 2 6 3
12 11 5 10 10 3 2 15 3 4
6 10 7 2 5 14 1 5
5 15 14 6 9 12 12 5 11 11 1 9
12 2 7 8 11 4 9 12
4 3 5 8 7 13 14 10 15 13
12 11 9 14 5 14 14 9 10 3 8 11
15 2 13 10 9 14 7 4 14 4 3 13
